assets/logs/19_12x12_clingo/19_12x12_clingo.solution.log

-------------------------------------------------
|  0| 70| 13| 62| 76| 58| 17| 22| 21| 54| 97|  0|
-------------------------------------------------
| 11| 64|  1| 72| 15| 80| 18| 56| 95| 24| 23| 52|
-------------------------------------------------
| 68|131| 41| 78| 60| 74| 45| 19| 20| 99| 93| 26|
-------------------------------------------------
| 10|  9| 66|133| 43| 16| 82|101|107| 28| 50| 25|
-------------------------------------------------
|129|  1| 12| 39|  5|103|109| 47| 48| 27|  1| 91|
-------------------------------------------------
|  2|  8|  7|125| 14| 84| 46|105|  1| 53| 30| 29|
-------------------------------------------------
|132|127|  4|  3| 37|123| 96|111| 49| 31| 89| 55|
-------------------------------------------------
|  6| 77|122|  1| 94| 44| 86| 33| 98|108| 51| 32|
-------------------------------------------------
|120|130|116| 71|121| 35|  1|110|113| 87| 57|106|
-------------------------------------------------
| 75|124| 79| 92|114| 88| 42| 85| 38|100| 34| 61|
-------------------------------------------------
|128|118| 73|119| 69| 83|112|115| 65| 59|104|  0|
-------------------------------------------------
|  0|  0|126| 81| 90|117| 67| 40|102| 36| 63|  1|
-------------------------------------------------

| n = 12 | k = 7 | coverage = 139, 96.52777777777777%
 Time 299.967
 Name 19_12x12_clingo

