assets/logs/19_12x12_clingo/19_12x12_clingo.log
clingo version 5.4.0
Reading from ...s/logs/19_12x12_clingo/knights_tour.lp ...
Solving...
Answer: 1
occ(1,6,9) occ(1,9,7) occ(1,2,3) occ(1,12,12) occ(1,5,2) occ(1,8,4) occ(1,5,11) occ(2,6,1) occ(3,7,4) coverage(6)
Optimization: -6
Answer: 2
occ(1,6,9) occ(1,9,7) occ(1,2,3) occ(1,12,12) occ(1,5,2) occ(1,8,4) occ(1,5,11) occ(2,6,1) occ(3,7,4) coverage(72) occ(51,1,10) occ(71,1,4) occ(89,1,9) occ(97,1,3) occ(101,1,5) occ(119,1,2) occ(28,2,10) occ(32,2,8) occ(53,2,12) occ(87,2,11) occ(91,2,7) occ(95,2,5) occ(113,2,2) occ(121,2,4) occ(49,3,11) occ(55,3,10) occ(69,3,5) occ(73,3,3) occ(99,3,4) occ(103,3,6) occ(117,3,1) occ(123,3,2) occ(26,4,11) occ(30,4,9) occ(34,4,7) occ(61,4,12) occ(65,4,8) occ(85,4,10) occ(93,4,6) occ(111,4,1) occ(115,4,3) occ(5,5,5) occ(47,5,12) occ(57,5,9) occ(63,5,10) occ(67,5,6) occ(75,5,4) occ(83,5,8) occ(105,5,7) occ(109,5,3) occ(125,5,1) occ(11,6,7) occ(24,6,12) occ(36,6,8) occ(59,6,11) occ(77,6,6) occ(81,6,10) occ(107,6,5) occ(127,6,3) occ(141,6,2) occ(4,7,3) occ(7,7,6) occ(13,7,9) occ(38,7,10) occ(45,7,11) occ(50,7,12) occ(56,7,7) occ(79,7,8) occ(9,8,8) occ(15,8,7) occ(22,8,11) occ(40,8,12) occ(48,8,10) occ(54,8,9) occ(58,8,5) occ(129,8,2) occ(139,8,1) occ(143,8,3) occ(6,9,4) occ(17,9,5) occ(31,9,6) occ(35,9,8) occ(39,9,10) occ(43,9,12) occ(52,9,11) occ(60,9,3) occ(68,9,9) occ(8,10,6) occ(12,10,8) occ(16,10,10) occ(19,10,7) occ(20,10,12) occ(27,10,3) occ(42,10,11) occ(46,10,9) occ(62,10,5) occ(131,10,1) occ(137,10,2) occ(23,11,6) occ(29,11,5) occ(33,11,7) occ(37,11,9) occ(41,11,11) occ(66,11,8) occ(70,11,10) occ(135,11,4) occ(10,12,7) occ(14,12,9) occ(18,12,11) occ(21,12,8) occ(25,12,4) occ(44,12,10) occ(64,12,6) occ(133,12,2)
Optimization: -72
Answer: 3
occ(1,6,9) occ(1,9,7) occ(1,2,3) occ(1,12,12) occ(1,5,2) occ(1,8,4) occ(1,5,11) occ(2,6,1) occ(3,7,4) coverage(97) occ(46,1,4) occ(50,1,8) occ(53,1,3) occ(57,1,7) occ(61,1,5) occ(81,1,9) occ(88,1,11) occ(91,1,10) occ(95,1,12) occ(110,1,2) occ(114,1,6) occ(48,2,6) occ(51,2,1) occ(54,2,7) occ(55,2,5) occ(79,2,11) occ(85,2,10) occ(89,2,12) occ(112,2,4) occ(116,2,8) occ(122,2,9) occ(44,3,3) occ(52,3,9) occ(59,3,6) occ(63,3,4) occ(83,3,8) occ(86,3,12) occ(90,3,10) occ(93,3,11) occ(98,3,2) occ(108,3,1) occ(120,3,7) occ(18,4,7) occ(49,4,2) occ(56,4,6) occ(62,4,5) occ(77,4,12) occ(84,4,10) occ(87,4,11) occ(92,4,8) occ(96,4,4) occ(106,4,3) occ(118,4,9) occ(14,5,8) occ(42,5,4) occ(60,5,7) occ(65,5,5) occ(69,5,9) occ(75,5,10) occ(82,5,12) occ(94,5,6) occ(100,5,3) occ(104,5,1) occ(13,6,10) occ(16,6,6) occ(20,6,8) occ(47,6,3) occ(58,6,5) occ(64,6,4) occ(67,6,7) occ(71,6,11) occ(11,7,8) occ(12,7,7) occ(22,7,6) occ(40,7,3) occ(45,7,1) occ(68,7,5) occ(73,7,9) occ(80,7,11) occ(102,7,2) occ(4,8,2) occ(5,8,6) occ(9,8,10) occ(10,8,5) occ(15,8,9) occ(29,8,8) occ(38,8,1) occ(66,8,3) occ(70,8,7) occ(74,8,11) occ(6,9,4) occ(7,9,8) occ(24,9,5) occ(27,9,10) occ(37,9,3) occ(43,9,2) occ(72,9,9) occ(78,9,12) occ(8,10,6) occ(17,10,8) occ(25,10,12) occ(30,10,3) occ(31,10,7) occ(36,10,2) occ(41,10,4) occ(76,10,10) occ(21,11,9) occ(26,11,6) occ(32,11,5) occ(35,11,4) occ(39,11,2) occ(19,12,7) occ(23,12,11) occ(28,12,4) occ(33,12,6) occ(34,12,3)
Optimization: -97
Answer: 4
occ(1,6,9) occ(1,9,7) occ(1,2,3) occ(1,12,12) occ(1,5,2) occ(1,8,4) occ(1,5,11) occ(2,6,1) occ(3,7,4) coverage(121) occ(18,1,2) occ(24,1,3) occ(54,1,4) occ(61,1,11) occ(88,1,9) occ(94,1,8) occ(114,1,6) occ(124,1,7) occ(22,2,1) occ(52,2,6) occ(56,2,2) occ(63,2,9) occ(86,2,11) occ(90,2,7) occ(96,2,10) occ(112,2,4) occ(122,2,5) occ(16,3,1) occ(20,3,3) occ(26,3,4) occ(59,3,10) occ(62,3,2) occ(65,3,7) occ(80,3,11) occ(92,3,9) occ(116,3,5) occ(14,4,3) occ(28,4,2) occ(50,4,7) occ(58,4,1) occ(73,4,12) occ(78,4,9) occ(84,4,10) occ(98,4,11) occ(110,4,5) occ(120,4,4) occ(30,5,4) occ(57,5,9) occ(60,5,3) occ(64,5,1) occ(67,5,8) occ(72,5,5) occ(75,5,10) occ(76,5,7) occ(82,5,12) occ(118,5,6) occ(12,6,2) occ(38,6,5) occ(44,6,10) occ(48,6,8) occ(66,6,3) occ(70,6,7) occ(71,6,11) occ(100,6,12) occ(108,6,6) occ(109,6,4) occ(32,7,3) occ(36,7,7) occ(42,7,8) occ(55,7,10) occ(68,7,5) occ(69,7,9) occ(74,7,6) occ(77,7,11) occ(107,7,2) occ(113,7,1) occ(4,8,2) occ(10,8,1) occ(34,8,5) occ(40,8,6) occ(45,8,8) occ(46,8,9) occ(85,8,10) occ(102,8,11) occ(106,8,7) occ(111,8,3) occ(5,9,5) occ(6,9,4) occ(35,9,6) occ(53,9,11) occ(79,9,10) occ(83,9,12) occ(87,9,8) occ(97,9,3) occ(104,9,9) occ(105,9,1) occ(115,9,2) occ(7,10,3) occ(8,10,2) occ(11,10,1) occ(17,10,6) occ(25,10,12) occ(29,10,8) occ(37,10,4) occ(43,10,7) occ(47,10,9) occ(89,10,10) occ(99,10,5) occ(13,11,3) occ(21,11,9) occ(27,11,10) occ(33,11,7) occ(39,11,6) occ(51,11,12) occ(81,11,11) occ(91,11,8) occ(95,11,4) occ(103,11,2) occ(117,11,1) occ(9,12,2) occ(15,12,5) occ(19,12,7) occ(23,12,11) occ(31,12,9) occ(41,12,8) occ(49,12,10) occ(93,12,6) occ(101,12,4) occ(119,12,3)
Optimization: -121
Answer: 5
occ(1,6,9) occ(1,9,7) occ(1,2,3) occ(1,12,12) occ(1,5,2) occ(1,8,4) occ(1,5,11) occ(2,6,1) occ(3,7,4) coverage(123) occ(18,1,2) occ(24,1,3) occ(54,1,4) occ(61,1,11) occ(82,1,12) occ(92,1,7) occ(98,1,10) occ(108,1,9) occ(118,1,6) occ(22,2,1) occ(52,2,6) occ(56,2,2) occ(63,2,9) occ(80,2,10) occ(96,2,8) occ(100,2,12) occ(106,2,11) occ(110,2,7) occ(120,2,4) occ(16,3,1) occ(20,3,3) occ(26,3,4) occ(59,3,10) occ(62,3,2) occ(65,3,7) occ(84,3,11) occ(90,3,8) occ(94,3,6) occ(104,3,9) occ(116,3,5) occ(14,4,3) occ(28,4,2) occ(50,4,7) occ(58,4,1) occ(73,4,12) occ(78,4,9) occ(88,4,10) occ(102,4,11) occ(112,4,8) occ(122,4,5) occ(30,5,4) occ(57,5,9) occ(60,5,3) occ(64,5,1) occ(67,5,8) occ(72,5,5) occ(75,5,10) occ(76,5,7) occ(86,5,12) occ(114,5,6) occ(12,6,2) occ(38,6,5) occ(44,6,10) occ(48,6,8) occ(66,6,3) occ(70,6,7) occ(71,6,11) occ(109,6,4) occ(32,7,3) occ(36,7,7) occ(42,7,8) occ(55,7,10) occ(68,7,5) occ(69,7,9) occ(74,7,6) occ(77,7,11) occ(107,7,2) occ(113,7,1) occ(4,8,2) occ(10,8,1) occ(34,8,5) occ(40,8,6) occ(45,8,8) occ(46,8,9) occ(85,8,10) occ(111,8,3) occ(5,9,5) occ(6,9,4) occ(35,9,6) occ(53,9,11) occ(79,9,10) occ(83,9,12) occ(87,9,8) occ(97,9,3) occ(105,9,1) occ(115,9,2) occ(7,10,3) occ(8,10,2) occ(11,10,1) occ(17,10,6) occ(25,10,12) occ(29,10,8) occ(37,10,4) occ(43,10,7) occ(47,10,9) occ(89,10,10) occ(99,10,5) occ(13,11,3) occ(21,11,9) occ(27,11,10) occ(33,11,7) occ(39,11,6) occ(51,11,12) occ(81,11,11) occ(91,11,8) occ(95,11,4) occ(103,11,2) occ(117,11,1) occ(121,11,5) occ(9,12,2) occ(15,12,5) occ(19,12,7) occ(23,12,11) occ(31,12,9) occ(41,12,8) occ(49,12,10) occ(93,12,6) occ(101,12,4) occ(119,12,3)
Optimization: -123
Answer: 6
occ(1,6,9) occ(1,9,7) occ(1,2,3) occ(1,12,12) occ(1,5,2) occ(1,8,4) occ(1,5,11) occ(2,6,1) occ(3,7,4) coverage(130) occ(18,1,2) occ(24,1,3) occ(54,1,4) occ(80,1,11) occ(92,1,7) occ(98,1,10) occ(108,1,9) occ(118,1,6) occ(22,2,1) occ(52,2,6) occ(56,2,2) occ(63,2,9) occ(67,2,5) occ(76,2,10) occ(96,2,8) occ(100,2,12) occ(106,2,11) occ(110,2,7) occ(120,2,4) occ(16,3,1) occ(20,3,3) occ(26,3,4) occ(61,3,11) occ(62,3,2) occ(65,3,7) occ(78,3,12) occ(82,3,10) occ(90,3,8) occ(94,3,6) occ(104,3,9) occ(116,3,5) occ(14,4,3) occ(28,4,2) occ(50,4,7) occ(58,4,1) occ(69,4,6) occ(73,4,10) occ(74,4,9) occ(84,4,12) occ(102,4,11) occ(112,4,8) occ(122,4,5) occ(30,5,4) occ(59,5,10) occ(60,5,3) occ(64,5,1) occ(68,5,5) occ(71,5,8) occ(72,5,7) occ(75,5,12) occ(88,5,9) occ(114,5,6) occ(12,6,2) occ(38,6,5) occ(44,6,10) occ(48,6,8) occ(57,6,12) occ(66,6,3) occ(86,6,11) occ(109,6,4) occ(124,6,6) occ(21,7,9) occ(32,7,3) occ(36,7,7) occ(42,7,8) occ(55,7,10) occ(70,7,6) occ(77,7,11) occ(107,7,2) occ(113,7,1) occ(128,7,5) occ(4,8,2) occ(10,8,1) occ(23,8,11) occ(34,8,5) occ(40,8,6) occ(45,8,8) occ(46,8,9) occ(81,8,12) occ(85,8,10) occ(111,8,3) occ(126,8,7) occ(5,9,5) occ(6,9,4) occ(19,9,8) occ(25,9,9) occ(35,9,6) occ(53,9,11) occ(79,9,10) occ(87,9,12) occ(97,9,3) occ(105,9,1) occ(115,9,2) occ(7,10,3) occ(8,10,2) occ(11,10,1) occ(17,10,6) occ(29,10,8) occ(37,10,4) occ(43,10,7) occ(47,10,9) occ(83,10,11) occ(89,10,10) occ(99,10,5) occ(129,10,12) occ(13,11,3) occ(27,11,10) occ(33,11,7) occ(39,11,6) occ(51,11,12) occ(91,11,8) occ(95,11,4) occ(103,11,2) occ(117,11,1) occ(121,11,5) occ(125,11,9) occ(9,12,2) occ(15,12,5) occ(31,12,9) occ(41,12,8) occ(49,12,10) occ(93,12,6) occ(101,12,4) occ(119,12,3) occ(123,12,7) occ(127,12,11)
Optimization: -130
Answer: 7
occ(1,6,9) occ(1,9,7) occ(1,2,3) occ(1,12,12) occ(1,5,2) occ(1,8,4) occ(1,5,11) occ(2,6,1) occ(3,7,4) coverage(131) occ(47,1,2) occ(53,1,7) occ(71,1,6) occ(74,1,12) occ(78,1,8) occ(81,1,3) occ(82,1,4) occ(99,1,10) occ(113,1,9) occ(51,2,5) occ(55,2,9) occ(73,2,4) occ(76,2,10) occ(80,2,6) occ(83,2,1) occ(84,2,2) occ(97,2,8) occ(101,2,12) occ(107,2,11) occ(115,2,7) occ(20,3,9) occ(45,3,1) occ(49,3,3) occ(69,3,5) occ(72,3,11) occ(75,3,6) occ(79,3,2) occ(87,3,4) occ(93,3,7) occ(103,3,10) occ(111,3,8) occ(22,4,11) occ(43,4,3) occ(57,4,8) occ(67,4,7) occ(77,4,4) occ(85,4,2) occ(86,4,1) occ(91,4,5) occ(95,4,9) occ(105,4,12) occ(109,4,10) occ(117,4,6) occ(18,5,8) occ(37,5,7) occ(41,5,5) occ(61,5,9) occ(70,5,12) occ(89,5,3) occ(119,5,4) occ(127,5,6) occ(128,5,1) occ(24,6,12) occ(29,6,10) occ(35,6,5) occ(59,6,7) occ(62,6,11) occ(65,6,8) occ(88,6,2) occ(121,6,6) occ(129,6,4) occ(130,6,3) occ(4,7,3) occ(8,7,7) occ(16,7,9) occ(27,7,12) occ(31,7,8) occ(39,7,6) occ(44,7,1) occ(63,7,10) occ(68,7,11) occ(125,7,5) occ(126,7,2) occ(5,8,2) occ(6,8,5) occ(10,8,9) occ(21,8,8) occ(26,8,11) occ(33,8,6) occ(46,8,3) occ(60,8,12) occ(64,8,10) occ(90,8,1) occ(123,8,7) occ(7,9,4) occ(13,9,3) occ(14,9,8) occ(19,9,6) occ(25,9,11) occ(42,9,2) occ(48,9,5) occ(58,9,10) occ(66,9,12) occ(104,9,9) occ(124,9,1) occ(11,10,1) occ(12,10,10) occ(17,10,4) occ(23,10,9) occ(28,10,12) occ(52,10,8) occ(92,10,2) occ(98,10,7) occ(106,10,11) occ(112,10,6) occ(118,10,5) occ(122,10,3) occ(9,11,3) occ(15,11,2) occ(32,11,9) occ(36,11,5) occ(40,11,1) occ(50,11,6) occ(56,11,11) occ(94,11,4) occ(102,11,10) occ(110,11,8) occ(116,11,7) occ(30,12,11) occ(34,12,7) occ(38,12,3) occ(54,12,9) occ(96,12,6) occ(100,12,8) occ(108,12,10) occ(114,12,5) occ(120,12,4)
Optimization: -131
Answer: 8
occ(1,6,9) occ(1,9,7) occ(1,2,3) occ(1,12,12) occ(1,5,2) occ(1,8,4) occ(1,5,11) occ(2,6,1) occ(3,7,4) coverage(132) occ(14,1,6) occ(18,1,10) occ(51,1,4) occ(72,1,9) occ(86,1,8) occ(92,1,11) occ(96,1,7) occ(113,1,5) occ(119,1,2) occ(16,2,8) occ(20,2,12) occ(49,2,6) occ(53,2,2) occ(59,2,1) occ(74,2,11) occ(88,2,10) occ(94,2,9) occ(98,2,5) occ(111,2,7) occ(117,2,4) occ(12,3,5) occ(42,3,10) occ(57,3,3) occ(70,3,8) occ(80,3,11) occ(84,3,7) occ(90,3,12) occ(102,3,2) occ(103,3,4) occ(109,3,9) occ(115,3,6) occ(121,3,1) occ(7,4,7) occ(22,4,11) occ(40,4,12) occ(44,4,8) occ(47,4,5) occ(55,4,1) occ(61,4,2) occ(76,4,10) occ(82,4,9) occ(100,4,4) occ(105,4,6) occ(123,4,3) occ(9,5,9) occ(10,5,4) occ(38,5,10) occ(43,5,6) occ(68,5,7) occ(78,5,12) occ(101,5,5) occ(104,5,3) occ(107,5,8) occ(125,5,1) occ(5,6,6) occ(8,6,2) occ(11,6,11) occ(24,6,10) occ(41,6,8) occ(45,6,4) occ(46,6,7) occ(60,6,12) occ(63,6,3) occ(106,6,5) occ(4,7,3) occ(21,7,11) occ(30,7,12) occ(36,7,9) occ(62,7,10) occ(65,7,1) occ(66,7,8) occ(99,7,6) occ(108,7,7) occ(127,7,2) occ(128,7,5) occ(6,8,1) occ(13,8,12) occ(26,8,9) occ(32,8,10) occ(39,8,7) occ(48,8,8) occ(58,8,11) occ(89,8,2) occ(93,8,6) occ(110,8,5) occ(126,8,3) occ(19,9,10) occ(23,9,12) occ(28,9,11) occ(34,9,8) occ(64,9,9) occ(67,9,2) occ(91,9,4) occ(97,9,5) occ(129,9,1) occ(130,9,6) occ(15,10,11) occ(31,10,5) occ(37,10,6) occ(50,10,9) occ(56,10,10) occ(77,10,8) occ(87,10,3) occ(95,10,7) occ(112,10,4) occ(118,10,1) occ(124,10,2) occ(17,11,9) occ(25,11,11) occ(29,11,7) occ(35,11,8) occ(54,11,12) occ(69,11,1) occ(73,11,5) occ(79,11,10) occ(83,11,6) occ(116,11,3) occ(122,11,4) occ(131,11,2) occ(27,12,9) occ(33,12,6) occ(52,12,10) occ(71,12,3) occ(75,12,7) occ(81,12,8) occ(85,12,4) occ(114,12,5) occ(120,12,2)
Optimization: -132
Answer: 9
occ(1,6,9) occ(1,9,7) occ(1,2,3) occ(1,12,12) occ(1,5,2) occ(1,8,4) occ(1,5,11) occ(2,6,1) occ(3,7,4) coverage(133) occ(15,1,4) occ(19,1,8) occ(20,1,9) occ(72,1,3) occ(76,1,7) occ(80,1,11) occ(86,1,12) occ(90,1,10) occ(102,1,6) occ(106,1,2) occ(10,2,7) occ(11,2,1) occ(17,2,6) occ(22,2,11) occ(74,2,5) occ(78,2,9) occ(84,2,10) occ(92,2,12) occ(100,2,8) occ(104,2,4) occ(112,2,2) occ(7,3,4) occ(8,3,5) occ(13,3,3) occ(14,3,8) occ(18,3,10) occ(21,3,7) occ(70,3,2) occ(82,3,12) occ(88,3,11) occ(108,3,1) occ(127,3,6) occ(9,4,2) occ(12,4,6) occ(24,4,12) occ(34,4,7) occ(37,4,10) occ(94,4,11) occ(98,4,9) occ(110,4,3) occ(114,4,1) occ(125,4,8) occ(129,4,4) occ(5,5,3) occ(6,5,4) occ(16,5,9) occ(23,5,6) occ(32,5,5) occ(35,5,8) occ(39,5,12) occ(68,5,1) occ(97,5,7) occ(123,5,10) occ(25,6,4) occ(26,6,11) occ(30,6,7) occ(36,6,6) occ(75,6,3) occ(96,6,10) occ(105,6,12) occ(116,6,2) occ(121,6,8) occ(131,6,5) occ(4,7,3) occ(28,7,9) occ(33,7,7) occ(41,7,11) occ(66,7,2) occ(77,7,5) occ(81,7,1) occ(95,7,8) occ(99,7,6) occ(103,7,10) occ(27,8,5) occ(38,8,7) occ(45,8,10) occ(53,8,12) occ(73,8,2) occ(79,8,3) occ(93,8,6) occ(101,8,8) occ(107,8,11) occ(118,8,1) occ(119,8,9) occ(31,9,6) occ(40,9,5) occ(43,9,12) occ(44,9,1) occ(47,9,8) occ(55,9,10) occ(61,9,9) occ(64,9,3) occ(83,9,2) occ(91,9,4) occ(117,9,11) occ(29,10,4) occ(42,10,3) occ(51,10,11) occ(54,10,9) occ(57,10,12) occ(62,10,5) occ(63,10,7) occ(71,10,1) occ(109,10,10) occ(120,10,2) occ(128,10,6) occ(132,10,8) occ(46,11,2) occ(49,11,9) occ(50,11,6) occ(56,11,11) occ(59,11,10) occ(60,11,7) occ(67,11,4) occ(85,11,1) occ(89,11,5) occ(111,11,8) occ(115,11,12) occ(124,11,3) occ(48,12,4) occ(52,12,8) occ(58,12,9) occ(65,12,6) occ(69,12,2) occ(87,12,3) occ(113,12,10) occ(122,12,1) occ(126,12,5) occ(130,12,7)
Optimization: -133
Answer: 10
occ(1,6,9) occ(1,9,7) occ(1,2,3) occ(1,12,12) occ(1,5,2) occ(1,8,4) occ(1,5,11) occ(2,6,1) occ(3,7,4) coverage(134) occ(13,1,3) occ(17,1,7) occ(21,1,9) occ(22,1,8) occ(54,1,10) occ(58,1,6) occ(62,1,4) occ(70,1,2) occ(76,1,5) occ(97,1,11) occ(11,2,1) occ(15,2,5) occ(18,2,7) occ(23,2,11) occ(24,2,10) occ(52,2,12) occ(56,2,8) occ(64,2,2) occ(72,2,4) occ(80,2,6) occ(95,2,9) occ(19,3,8) occ(20,3,9) occ(26,3,12) occ(41,3,3) occ(45,3,7) occ(60,3,5) occ(68,3,1) occ(74,3,6) occ(78,3,4) occ(93,3,11) occ(99,3,10) occ(131,3,2) occ(9,4,2) occ(10,4,1) occ(16,4,6) occ(25,4,12) occ(28,4,10) occ(43,4,5) occ(50,4,11) occ(66,4,3) occ(82,4,7) occ(101,4,8) occ(107,4,9) occ(133,4,4) occ(5,5,5) occ(12,5,3) occ(27,5,10) occ(39,5,4) occ(47,5,8) occ(48,5,9) occ(91,5,12) occ(103,5,6) occ(109,5,7) occ(129,5,1) occ(7,6,3) occ(8,6,2) occ(14,6,5) occ(29,6,12) occ(30,6,11) occ(46,6,7) occ(53,6,10) occ(84,6,6) occ(105,6,8) occ(125,6,4) occ(4,7,3) occ(31,7,10) occ(37,7,5) occ(49,7,9) occ(55,7,12) occ(89,7,11) occ(96,7,7) occ(111,7,8) occ(123,7,6) occ(127,7,2) occ(132,7,1) occ(6,8,1) occ(32,8,12) occ(33,8,8) occ(44,8,6) occ(51,8,11) occ(77,8,2) occ(86,8,7) occ(94,8,5) occ(98,8,9) occ(108,8,10) occ(122,8,3) occ(35,9,6) occ(57,9,11) occ(71,9,4) occ(87,9,10) occ(106,9,12) occ(110,9,8) occ(113,9,9) occ(116,9,3) occ(120,9,1) occ(121,9,5) occ(130,9,2) occ(34,10,11) occ(38,10,9) occ(42,10,7) occ(61,10,12) occ(75,10,1) occ(79,10,3) occ(85,10,8) occ(88,10,6) occ(92,10,4) occ(100,10,10) occ(114,10,5) occ(124,10,2) occ(59,11,10) occ(65,11,9) occ(69,11,5) occ(73,11,3) occ(83,11,6) occ(104,11,11) occ(112,11,7) occ(115,11,8) occ(118,11,2) occ(119,11,4) occ(128,11,1) occ(36,12,10) occ(40,12,8) occ(63,12,11) occ(67,12,7) occ(81,12,4) occ(90,12,5) occ(102,12,9) occ(117,12,6) occ(126,12,3)
Optimization: -134
*** Info : (clingo): INTERRUPTED by signal!
SATISFIABLE

TIME LIMIT   : 1
Models       : 10+
  Optimum    : unknown
Optimization : -134
Calls        : 1
Time         : 300.000s (Solving: 294.98s 1st Model: 0.01s Unsat: 0.00s)
CPU Time     : 299.967s
